c *********************************
c * Circuit generated by BenCGen
c *
c * CarrySkipAdder_6_6_6_InOut_G4T
c *
c * Ports with 1 gate(s): 4
c * Ports with 2 gate(s): 36
c * Ports with 4 gate(s): 1
c * Total gates: 41
c *********************************
p cnf 53 133
1 21 0
-1 -21 0
1 -20 0
21 -20 0
-1 -21 20 0
1 7 -24 0
-1 7 24 0
1 -7 24 0
-1 -7 -24 0
24 20 -13 0
-24 20 13 0
24 -20 13 0
-24 -20 -13 0
20 -25 0
24 -25 0
-20 -24 25 0
7 -26 0
1 -26 0
-7 -1 26 0
-25 23 0
-26 23 0
25 26 -23 0
2 8 -28 0
-2 8 28 0
2 -8 28 0
-2 -8 -28 0
28 23 -14 0
-28 23 14 0
28 -23 14 0
-28 -23 -14 0
23 -29 0
28 -29 0
-23 -28 29 0
8 -30 0
2 -30 0
-8 -2 30 0
-29 27 0
-30 27 0
29 30 -27 0
3 9 -32 0
-3 9 32 0
3 -9 32 0
-3 -9 -32 0
32 27 -15 0
-32 27 15 0
32 -27 15 0
-32 -27 -15 0
27 -33 0
32 -33 0
-27 -32 33 0
9 -34 0
3 -34 0
-9 -3 34 0
-33 31 0
-34 31 0
33 34 -31 0
4 10 -35 0
-4 10 35 0
4 -10 35 0
-4 -10 -35 0
35 31 -16 0
-35 31 16 0
35 -31 16 0
-35 -31 -16 0
31 -36 0
35 -36 0
-31 -35 36 0
10 -37 0
4 -37 0
-10 -4 37 0
-36 22 0
-37 22 0
36 37 -22 0
24 -38 0
28 -38 0
32 -38 0
35 -38 0
-24 -28 -32 -35 38 0
37 -39 0
-37 39 0
20 -40 0
38 -40 0
-20 -38 40 0
-40 41 0
-22 41 0
40 22 -41 0
5 11 -44 0
-5 11 44 0
5 -11 44 0
-5 -11 -44 0
44 41 -17 0
-44 41 17 0
44 -41 17 0
-44 -41 -17 0
41 -45 0
44 -45 0
-41 -44 45 0
11 -46 0
5 -46 0
-11 -5 46 0
-45 43 0
-46 43 0
45 46 -43 0
6 12 -47 0
-6 12 47 0
6 -12 47 0
-6 -12 -47 0
47 43 -18 0
-47 43 18 0
47 -43 18 0
-47 -43 -18 0
43 -48 0
47 -48 0
-43 -47 48 0
12 -49 0
6 -49 0
-12 -6 49 0
-48 42 0
-49 42 0
48 49 -42 0
44 -50 0
47 -50 0
-44 -47 50 0
49 -51 0
-49 51 0
41 -52 0
50 -52 0
-41 -50 52 0
-52 53 0
-42 53 0
52 42 -53 0
53 -19 0
-53 19 0
